NAME : olimex
COMMENT : wpc6
TYPE : TSP
DIMENSION : 1560
EDGE_WEIGHT_TYPE : EUC_2D
NODE_COORD_SECTION
  1 94.717 24.642
  2 94.717 35.322
  3 94.741 22.102
  4 94.741 32.782
  5 97.390 68.529
  6 97.390 83.129
  7 97.712 41.379
  8 97.712 45.779
  9 97.740 68.529
 10 97.740 83.129
 11 98.140 68.529
 12 98.140 83.129
 13 98.540 68.529
 14 98.540 83.129
 15 98.822 51.606
 16 98.822 64.746
 17 99.490 22.997
 18 99.490 34.427
 19 101.268 31.252
 20 101.522 54.676
 21 101.522 57.176
 22 101.522 59.176
 23 101.522 61.676
 24 101.649 41.031
 25 101.718 86.786
 26 101.718 99.526
 27 101.990 20.712
 28 101.990 36.712
 29 102.106 93.156
 30 102.190 20.712
 31 102.190 36.712
 32 102.390 20.712
 33 102.390 36.712
 34 102.590 20.712
 35 102.590 36.712
 36 102.790 20.712
 37 102.790 36.712
 38 102.792 71.829
 39 102.792 73.329
 40 102.792 74.829
 41 102.792 76.329
 42 102.792 79.329
 43 102.940 68.529
 44 102.940 83.129
 45 102.990 20.712
 46 102.990 36.712
 47 103.290 68.529
 48 103.290 83.129
 49 103.640 68.529
 50 103.640 83.129
 51 103.940 68.529
 52 103.940 83.129
 53 104.142 54.676
 54 104.142 57.176
 55 104.142 59.176
 56 104.142 61.676
 57 104.340 68.529
 58 104.340 83.129
 59 104.522 51.606
 60 104.522 64.746
 61 104.697 37.475
 62 104.740 68.529
 63 104.740 83.129
 64 105.713 48.270
 65 105.840 46.492
 66 106.190 25.547
 67 106.190 28.087
 68 106.190 30.627
 69 106.190 33.167
 70 106.221 41.666
 71 106.424 79.715
 72 106.983 86.370
 73 107.237 67.701
 74 107.364 99.324
 75 107.491 41.666
 76 107.491 72.908
 77 107.491 75.956
 78 107.491 78.877
 79 108.380 41.920
 80 108.507 37.729
 81 108.507 42.682
 82 108.507 84.338
 83 108.730 24.277
 84 108.730 26.817
 85 108.730 29.357
 86 108.730 31.897
 87 108.888 47.000
 88 108.888 49.540
 89 108.888 53.604
 90 108.888 56.144
 91 108.888 60.208
 92 108.888 62.748
 93 109.624 72.908
 94 109.624 75.956
 95 109.624 78.877
 96 109.650 80.020
 97 109.701 77.734
 98 109.777 84.465
 99 109.904 99.324
100 110.005 78.344
101 110.005 79.410
102 110.094 51.953
103 110.158 39.253
104 110.412 27.442
105 110.539 59.700
106 111.174 44.206
107 111.555 57.541
108 111.555 59.573
109 112.190 29.855
110 112.444 40.777
111 112.444 50.937
112 112.825 38.237
113 113.419 23.632
114 113.419 98.562
115 114.069 22.082
116 114.069 25.182
117 114.069 97.012
118 114.069 100.112
119 115.619 21.432
120 115.619 23.632
121 115.619 25.832
122 115.619 96.362
123 115.619 98.562
124 115.619 100.762
125 115.746 43.317
126 116.127 32.268
127 116.127 35.062
128 116.381 33.665
129 116.571 32.903
130 116.571 34.427
131 116.952 70.241
132 117.169 22.082
133 117.169 25.182
134 117.169 97.012
135 117.169 100.112
136 117.206 51.889
137 117.206 57.287
138 117.206 72.527
139 117.206 75.067
140 117.206 77.607
141 117.206 80.147
142 117.206 82.687
143 117.206 85.227
144 117.460 52.461
145 117.460 54.747
146 117.714 46.873
147 117.819 23.632
148 117.819 98.562
149 117.968 46.301
150 118.667 40.650
151 118.921 38.110
152 119.556 22.870
153 119.556 32.522
154 119.683 31.252
155 119.683 45.857
156 119.810 27.315
157 120.000 32.903
158 120.127 29.855
159 120.318 23.378
160 120.572 27.315
161 120.572 38.516
162 120.953 23.378
163 121.080 93.482
164 121.080 94.752
165 121.080 96.022
166 121.080 97.292
167 121.080 98.562
168 121.080 99.832
169 121.207 27.315
170 121.207 35.824
171 121.461 29.982
172 121.842 27.315
173 122.096 23.124
174 122.096 29.982
175 122.223 35.951
176 122.350 31.760
177 122.731 29.982
178 122.985 33.030
179 123.048 77.607
180 123.048 80.147
181 123.048 82.687
182 123.048 84.020
183 123.112 31.760
184 123.112 62.367
185 123.112 64.907
186 123.112 67.066
187 123.112 69.987
188 123.112 72.527
189 123.112 75.067
190 123.302 59.827
191 123.366 29.982
192 123.366 35.951
193 123.366 38.618
194 123.556 54.747
195 123.556 57.287
196 123.747 31.760
197 123.747 33.474
198 123.874 20.711
199 124.001 34.046
200 124.255 23.378
201 124.255 27.315
202 124.636 42.809
203 125.017 64.081
204 125.144 46.746
205 125.195 68.133
206 125.334 33.347
207 125.398 60.970
208 125.474 30.172
209 125.588 63.827
210 125.652 27.442
211 125.652 33.855
212 125.652 51.381
213 125.728 67.828
214 125.906 20.711
215 125.906 67.129
216 126.033 63.383
217 126.096 36.586
218 126.223 51.635
219 126.350 67.637
220 126.414 88.656
221 126.668 41.031
222 126.795 51.889
223 126.922 37.157
224 126.985 26.426
225 127.049 36.078
226 127.176 62.748
227 127.366 52.143
228 127.430 26.870
229 127.811 99.451
230 127.874 26.489
231 127.938 52.397
232 128.065 33.030
233 128.192 25.981
234 128.192 35.824
235 128.255 66.748
236 128.446 33.538
237 128.446 77.861
238 128.509 52.651
239 128.636 25.600
240 128.827 45.730
241 128.827 46.365
242 128.827 64.399
243 128.954 38.999
244 128.954 50.746
245 128.954 90.815
246 129.208 25.346
247 129.208 25.981
248 129.208 48.714
249 129.335 86.179
250 129.462 47.254
251 129.589 39.380
252 129.716 28.013
253 129.716 76.591
254 129.779 25.600
255 129.906 85.925
256 130.033 39.824
257 130.224 23.378
258 130.224 42.936
259 130.224 48.968
260 130.224 99.451
261 130.414 84.020
262 130.478 39.380
263 130.668 85.417
264 130.795 48.714
265 130.859 75.448
266 130.922 39.824
267 131.367 39.380
268 131.367 48.460
269 131.367 85.862
270 131.494 84.592
271 131.494 90.815
272 131.557 47.825
273 131.621 35.824
274 131.811 39.824
275 131.938 85.036
276 132.256 28.013
277 132.256 32.014
278 132.256 33.030
279 132.319 36.713
280 132.383 31.252
281 132.446 85.544
282 132.573 36.141
283 132.764 20.457
284 132.764 23.124
285 132.827 35.570
286 133.145 35.062
287 133.907 33.132
288 134.288 83.576
289 134.288 86.560
290 134.288 89.926
291 134.796 27.886
292 135.050 86.560
293 135.304 29.156
294 135.304 56.017
295 135.304 58.684
296 135.939 86.560
297 136.447 35.189
298 136.828 83.576
299 136.828 87.322
300 136.955 45.031
301 137.463 48.143
302 137.717 33.132
303 137.844 28.775
304 137.844 39.253
305 137.907 40.840
306 138.542 40.840
307 138.669 42.110
308 138.860 48.143
309 138.860 86.751
310 139.114 31.061
311 139.114 32.141
312 139.177 43.253
313 139.304 42.110
314 139.685 40.840
315 139.749 43.507
316 139.749 44.142
317 139.876 84.655
318 139.939 52.016
319 139.939 52.651
320 140.066 40.332
321 140.130 41.856
322 140.130 51.381
323 140.193 58.747
324 140.257 48.143
325 140.384 23.378
326 140.384 30.045
327 140.447 39.824
328 140.447 41.221
329 140.447 84.401
330 140.511 34.427
331 140.574 52.651
332 140.701 42.110
333 140.701 51.127
334 140.765 43.253
335 140.765 87.767
336 141.019 84.592
337 141.146 52.778
338 141.336 43.126
339 141.590 84.782
340 141.654 48.143
341 141.717 53.032
342 142.098 39.697
343 142.098 40.332
344 142.289 53.286
345 142.479 63.256
346 142.606 39.380
347 142.860 53.540
348 142.924 20.457
349 142.924 23.124
350 142.924 29.410
351 143.051 34.427
352 143.114 54.429
353 143.178 36.332
354 143.178 74.280
355 143.279 64.247
356 143.279 66.075
357 143.305 38.237
358 143.432 53.794
359 143.457 72.806
360 143.533 73.746
361 143.584 66.609
362 143.737 64.628
363 143.749 39.824
364 143.749 54.302
365 143.889 72.273
366 143.940 76.210
367 143.940 77.734
368 144.003 32.077
369 144.003 55.191
370 144.194 61.097
371 144.194 62.367
372 144.194 74.813
373 144.257 57.096
374 144.384 39.570
375 144.638 32.077
376 144.651 64.932
377 144.651 65.542
378 145.083 38.935
379 145.083 62.621
380 145.273 32.077
381 145.337 79.004
382 145.464 29.791
383 145.527 41.221
384 145.591 80.147
385 145.946 40.777
386 145.972 30.680
387 146.099 32.649
388 146.543 40.840
389 146.543 41.475
390 146.607 62.621
391 146.670 38.237
392 146.797 79.956
393 146.988 54.112
394 147.178 81.036
395 147.242 73.162
396 147.242 74.432
397 147.242 75.702
398 147.242 77.480
399 147.496 36.078
400 147.496 36.776
401 147.496 56.144
402 147.623 80.401
403 147.750 73.924
404 147.750 76.972
405 147.877 62.621
406 147.940 52.651
407 148.004 29.537
408 148.385 53.032
409 148.639 36.967
410 148.702 41.158
411 148.829 49.222
412 148.829 52.651
413 149.020 61.224
414 149.020 61.986
415 149.274 31.061
416 149.274 53.032
417 149.401 41.158
418 149.655 35.379
419 149.655 82.306
420 149.718 52.651
421 149.845 81.734
422 150.036 25.918
423 150.036 55.255
424 150.036 56.779
425 150.163 41.158
426 150.328 61.110
427 150.353 83.131
428 150.544 23.378
429 150.544 26.934
430 150.544 35.379
431 150.671 60.779
432 150.734 39.570
433 150.734 40.205
434 151.052 30.680
435 151.115 34.617
436 151.509 49.349
437 151.814 32.141
438 151.877 41.475
439 151.941 73.733
440 151.941 75.638
441 151.941 77.543
442 151.941 79.448
443 151.941 81.353
444 152.004 35.506
445 152.093 49.540
446 152.258 37.538
447 152.449 72.781
448 152.512 36.967
449 152.512 81.607
450 152.766 36.395
451 153.020 35.824
452 153.084 20.457
453 153.084 23.124
454 153.084 30.236
455 153.084 81.861
456 153.274 35.252
457 153.654 52.326
458 153.654 53.126
459 153.654 53.926
460 153.654 54.726
461 153.654 55.526
462 153.654 56.326
463 153.654 57.126
464 153.654 57.926
465 153.654 58.726
466 153.654 60.326
467 153.654 61.126
468 153.654 61.926
469 153.654 62.726
470 153.654 63.526
471 153.654 64.326
472 153.654 65.126
473 153.654 65.926
474 153.654 66.726
475 153.654 67.526
476 153.655 82.115
477 153.782 33.474
478 153.973 75.638
479 153.973 77.543
480 153.973 79.448
481 154.036 32.903
482 154.227 71.765
483 154.454 52.326
484 154.454 53.126
485 154.454 53.926
486 154.454 54.726
487 154.454 55.526
488 154.454 56.326
489 154.454 57.126
490 154.454 57.926
491 154.454 58.726
492 154.454 60.326
493 154.454 61.126
494 154.454 61.926
495 154.454 62.726
496 154.454 63.526
497 154.454 64.326
498 154.454 65.126
499 154.454 65.926
500 154.454 66.726
501 154.544 85.544
502 154.862 73.543
503 154.989 76.591
504 154.989 78.115
505 155.116 25.156
506 155.116 85.798
507 155.179 84.147
508 155.254 52.326
509 155.254 53.126
510 155.254 53.926
511 155.254 54.726
512 155.254 55.526
513 155.254 56.326
514 155.254 57.126
515 155.254 57.926
516 155.254 58.726
517 155.254 60.326
518 155.254 61.126
519 155.254 63.526
520 155.254 64.326
521 155.254 65.126
522 155.254 65.926
523 155.254 66.726
524 155.254 67.526
525 155.370 82.814
526 155.408 32.077
527 155.497 49.286
528 155.560 83.703
529 155.687 86.052
530 155.941 49.730
531 155.941 82.496
532 156.054 52.326
533 156.054 53.126
534 156.054 53.926
535 156.054 65.926
536 156.054 66.726
537 156.054 67.526
538 156.068 48.206
539 156.068 83.385
540 156.068 84.909
541 156.195 33.792
542 156.233 57.287
543 156.233 58.354
544 156.233 60.487
545 156.259 48.778
546 156.259 72.781
547 156.259 74.305
548 156.259 75.829
549 156.322 32.331
550 156.386 25.156
551 156.386 31.696
552 156.576 82.496
553 156.576 84.528
554 156.614 55.153
555 156.703 34.109
556 156.703 34.744
557 156.703 48.397
558 156.854 52.326
559 156.854 53.126
560 156.854 53.926
561 156.854 65.926
562 156.854 66.726
563 156.854 67.526
564 156.894 70.495
565 156.957 47.825
566 157.084 84.147
567 157.148 31.315
568 157.211 82.496
569 157.465 31.823
570 157.554 62.626
571 157.604 58.676
572 157.654 52.326
573 157.654 53.126
574 157.654 53.926
575 157.654 56.326
576 157.654 57.126
577 157.654 57.926
578 157.654 59.526
579 157.654 60.326
580 157.654 61.126
581 157.654 61.926
582 157.654 63.526
583 157.654 65.926
584 157.654 66.726
585 157.654 67.526
586 157.656 77.734
587 157.656 78.623
588 157.656 80.020
589 157.719 32.839
590 157.719 49.603
591 157.846 82.496
592 157.973 30.617
593 158.100 48.168
594 158.164 48.803
595 158.164 50.048
596 158.367 54.874
597 158.454 52.326
598 158.454 53.126
599 158.454 53.926
600 158.454 56.326
601 158.454 57.126
602 158.454 57.926
603 158.454 58.726
604 158.454 60.326
605 158.454 61.126
606 158.454 61.926
607 158.454 62.726
608 158.454 65.926
609 158.454 66.726
610 158.454 67.526
611 158.481 82.433
612 158.608 31.506
613 158.608 49.222
614 158.608 50.492
615 158.735 81.861
616 159.243 49.857
617 159.254 52.326
618 159.254 53.126
619 159.254 53.926
620 159.254 57.126
621 159.254 57.926
622 159.254 58.726
623 159.254 60.326
624 159.254 61.126
625 159.254 61.926
626 159.254 62.726
627 159.254 63.526
628 159.254 65.926
629 159.254 66.726
630 159.254 67.526
631 159.332 54.874
632 159.434 31.061
633 159.815 48.016
634 160.054 52.326
635 160.054 53.126
636 160.054 53.926
637 160.054 56.326
638 160.054 57.126
639 160.054 57.926
640 160.054 58.726
641 160.054 60.326
642 160.054 61.126
643 160.054 61.926
644 160.054 62.726
645 160.054 63.526
646 160.054 65.926
647 160.054 66.726
648 160.054 67.526
649 160.069 41.793
650 160.704 23.378
651 160.704 31.950
652 160.704 37.094
653 160.854 53.926
654 160.854 56.326
655 160.958 69.479
656 161.339 36.078
657 161.402 83.512
658 161.654 52.326
659 161.654 53.126
660 161.654 53.926
661 161.654 56.326
662 161.654 57.126
663 161.654 57.926
664 161.654 58.726
665 161.654 60.326
666 161.654 61.126
667 161.654 61.926
668 161.654 62.726
669 161.654 63.526
670 161.654 65.926
671 161.654 66.726
672 161.654 67.526
673 161.847 37.221
674 161.847 83.068
675 161.847 85.481
676 161.974 31.950
677 161.974 42.555
678 162.037 81.861
679 162.037 82.496
680 162.101 41.793
681 162.101 54.899
682 162.228 39.507
683 162.454 52.326
684 162.454 53.126
685 162.454 53.926
686 162.454 56.326
687 162.454 57.126
688 162.454 57.926
689 162.454 58.726
690 162.454 60.326
691 162.454 61.126
692 162.454 61.926
693 162.454 62.726
694 162.454 63.526
695 162.454 65.926
696 162.454 66.726
697 162.454 67.526
698 162.926 80.718
699 163.066 54.874
700 163.117 74.686
701 163.244 20.457
702 163.244 23.124
703 163.244 32.141
704 163.244 41.729
705 163.244 78.115
706 163.244 96.911
707 163.254 52.326
708 163.254 53.126
709 163.254 53.926
710 163.254 56.326
711 163.254 57.126
712 163.254 57.926
713 163.254 58.726
714 163.254 60.326
715 163.254 61.126
716 163.254 61.926
717 163.254 62.726
718 163.254 63.526
719 163.254 65.926
720 163.254 66.726
721 163.254 67.526
722 163.498 80.909
723 163.688 40.840
724 163.879 75.956
725 164.031 54.874
726 164.054 52.326
727 164.054 53.126
728 164.054 53.926
729 164.054 56.326
730 164.054 57.126
731 164.054 57.926
732 164.054 58.726
733 164.054 60.326
734 164.054 61.126
735 164.054 61.926
736 164.054 62.726
737 164.054 63.526
738 164.054 65.926
739 164.054 66.726
740 164.054 67.526
741 164.069 40.332
742 164.387 75.448
743 164.514 31.950
744 164.514 70.622
745 164.514 96.022
746 164.641 71.384
747 164.704 47.444
748 164.854 52.326
749 164.854 53.126
750 164.854 53.926
751 164.854 56.326
752 164.854 57.126
753 164.854 57.926
754 164.854 58.726
755 164.854 60.326
756 164.854 61.126
757 164.854 61.926
758 164.854 62.726
759 164.854 63.526
760 164.854 65.926
761 164.854 66.726
762 164.854 67.526
763 165.022 74.686
764 165.339 47.444
765 165.466 41.094
766 165.530 79.131
767 165.654 52.326
768 165.654 53.126
769 165.654 53.926
770 165.654 65.926
771 165.654 66.726
772 165.654 67.526
773 165.784 32.014
774 165.784 47.000
775 165.784 77.353
776 165.911 38.999
777 165.911 48.778
778 165.936 56.220
779 166.038 69.758
780 166.038 73.797
781 166.101 40.840
782 166.101 41.729
783 166.228 46.555
784 166.419 38.364
785 166.419 69.225
786 166.454 52.326
787 166.454 53.126
788 166.454 53.926
789 166.454 65.926
790 166.454 66.726
791 166.454 67.526
792 166.609 50.492
793 166.673 46.111
794 166.673 69.987
795 166.800 41.412
796 167.054 31.061
797 167.117 45.666
798 167.181 76.083
799 167.244 49.857
800 167.254 52.326
801 167.254 53.126
802 167.254 54.726
803 167.254 55.526
804 167.254 56.326
805 167.254 57.926
806 167.254 58.726
807 167.254 59.526
808 167.254 60.326
809 167.254 61.126
810 167.254 61.926
811 167.254 62.726
812 167.254 63.526
813 167.254 64.326
814 167.254 65.126
815 167.254 65.926
816 167.254 66.726
817 167.254 67.526
818 167.371 41.221
819 167.435 47.698
820 167.498 50.429
821 167.943 41.031
822 168.006 47.381
823 168.054 52.326
824 168.054 53.126
825 168.054 53.926
826 168.054 54.726
827 168.054 55.526
828 168.054 56.326
829 168.054 57.126
830 168.054 57.926
831 168.054 58.726
832 168.054 60.326
833 168.054 61.126
834 168.054 61.926
835 168.054 62.726
836 168.054 63.526
837 168.054 64.326
838 168.054 65.126
839 168.054 65.926
840 168.054 66.726
841 168.054 67.526
842 168.070 71.638
843 168.324 30.744
844 168.514 40.840
845 168.854 52.326
846 168.854 53.126
847 168.854 53.926
848 168.854 54.726
849 168.854 55.526
850 168.854 56.326
851 168.854 57.126
852 168.854 57.926
853 168.854 58.726
854 168.854 60.326
855 168.854 61.126
856 168.854 61.926
857 168.854 62.726
858 168.854 63.526
859 168.854 64.326
860 168.854 65.126
861 168.854 65.926
862 168.854 66.726
863 168.854 67.526
864 169.086 75.321
865 169.149 49.286
866 169.213 77.607
867 169.340 79.131
868 169.657 40.840
869 169.911 37.538
870 170.038 40.396
871 170.356 39.888
872 170.483 37.792
873 170.864 23.378
874 170.864 30.744
875 170.991 37.475
876 171.245 61.859
877 171.321 57.744
878 171.372 69.962
879 171.550 57.058
880 171.562 37.348
881 171.626 61.351
882 171.816 85.925
883 171.981 69.936
884 172.134 37.157
885 172.197 45.603
886 172.197 46.555
887 172.197 47.698
888 172.197 51.572
889 172.197 52.207
890 172.324 49.286
891 172.388 85.671
892 172.578 45.031
893 172.578 46.111
894 172.705 36.903
895 172.769 47.444
896 172.769 51.191
897 172.959 85.417
898 173.086 37.792
899 173.150 44.777
900 173.277 47.063
901 173.404 20.457
902 173.404 23.124
903 173.594 85.417
904 173.658 21.790
905 173.658 37.538
906 173.721 74.953
907 174.229 37.284
908 174.229 74.622
909 174.293 49.286
910 174.293 53.477
911 174.420 71.447
912 174.547 75.702
913 174.674 31.379
914 174.737 44.269
915 174.801 37.030
916 174.801 74.368
917 174.991 70.304
918 175.182 75.702
919 175.309 56.652
920 175.309 89.481
921 175.372 74.114
922 175.728 72.590
923 175.744 25.918
924 175.817 60.271
925 175.817 60.970
926 175.880 89.227
927 176.325 49.286
928 176.452 51.445
929 176.452 88.973
930 176.579 56.080
931 176.960 51.826
932 177.023 88.719
933 177.214 24.902
934 177.404 54.302
935 177.595 47.762
936 177.658 36.776
937 177.976 54.556
938 178.230 26.934
939 178.357 47.762
940 178.357 51.318
941 178.357 79.512
942 178.357 83.068
943 178.865 52.715
944 178.928 69.288
945 179.119 47.762
946 179.182 55.445
947 179.436 71.955
948 179.563 69.288
949 179.627 75.702
950 179.690 60.271
951 179.690 73.352
952 179.817 70.177
953 179.881 47.762
954 179.881 51.318
955 179.881 79.512
956 179.881 83.068
957 180.071 55.572
958 180.643 47.762
959 180.833 70.431
960 180.897 75.257
961 181.024 23.378
962 181.087 71.447
963 181.405 47.762
964 181.405 51.318
965 181.405 79.512
966 181.405 83.068
967 181.595 66.050
968 181.848 64.462
969 182.167 61.033
970 182.167 76.337
971 182.167 78.115
972 182.167 89.164
973 182.293 67.002
974 182.294 72.400
975 182.420 64.208
976 182.789 76.908
977 182.864 67.256
978 182.929 29.728
979 182.991 63.954
980 182.992 70.685
981 182.992 71.320
982 183.056 47.762
983 183.056 51.318
984 183.056 79.512
985 183.056 83.068
986 183.436 67.510
987 183.437 44.269
988 183.554 58.426
989 183.554 59.226
990 183.554 60.026
991 183.554 76.426
992 183.554 77.226
993 183.563 63.700
994 183.564 20.457
995 183.564 23.124
996 183.564 33.157
997 183.954 52.726
998 183.954 70.726
999 184.007 67.764
1000 184.134 63.446
1001 184.354 53.626
1002 184.354 58.426
1003 184.354 59.226
1004 184.354 60.026
1005 184.354 71.626
1006 184.354 76.426
1007 184.354 77.226
1008 184.379 78.101
1009 184.579 68.018
1010 184.707 47.762
1011 184.707 51.318
1012 184.707 79.512
1013 184.707 83.068
1014 184.754 52.726
1015 184.754 70.726
1016 185.024 73.352
1017 185.150 68.272
1018 185.154 53.626
1019 185.154 54.426
1020 185.154 58.426
1021 185.154 59.226
1022 185.154 60.026
1023 185.154 72.426
1024 185.154 76.426
1025 185.154 77.226
1026 185.179 78.101
1027 185.215 63.192
1028 185.469 47.762
1029 185.554 52.726
1030 185.722 68.526
1031 185.785 62.938
1032 185.850 73.797
1033 185.904 70.876
1034 185.954 53.626
1035 185.954 54.426
1036 185.954 58.426
1037 185.954 59.226
1038 185.954 60.026
1039 185.954 71.626
1040 185.954 72.426
1041 185.954 76.426
1042 185.954 77.226
1043 185.979 78.101
1044 186.104 33.157
1045 186.231 30.426
1046 186.231 47.762
1047 186.231 51.318
1048 186.231 79.512
1049 186.231 83.068
1050 186.231 95.133
1051 186.231 99.451
1052 186.293 68.780
1053 186.357 62.684
1054 186.420 74.114
1055 186.754 52.826
1056 186.754 54.426
1057 186.754 58.426
1058 186.754 59.226
1059 186.754 60.026
1060 186.754 70.826
1061 186.754 71.626
1062 186.754 72.426
1063 186.754 76.426
1064 186.754 77.226
1065 186.779 78.101
1066 186.865 69.034
1067 186.866 65.161
1068 186.866 65.796
1069 186.928 62.430
1070 186.993 47.762
1071 187.120 56.080
1072 187.120 70.241
1073 187.374 25.664
1074 187.374 34.300
1075 187.436 69.288
1076 187.500 62.176
1077 187.554 52.826
1078 187.554 53.626
1079 187.554 70.826
1080 187.554 71.626
1081 187.554 78.126
1082 187.755 47.762
1083 187.755 51.318
1084 187.755 79.512
1085 187.755 83.068
1086 187.854 60.199
1087 188.008 69.542
1088 188.071 61.922
1089 188.329 77.201
1090 188.354 52.826
1091 188.354 53.626
1092 188.354 58.426
1093 188.354 70.826
1094 188.354 71.626
1095 188.354 76.426
1096 188.354 78.026
1097 188.517 47.762
1098 188.517 57.414
1099 188.643 61.668
1100 188.644 33.157
1101 188.644 60.843
1102 188.644 92.656
1103 188.898 56.906
1104 189.141 60.038
1105 189.152 74.351
1106 189.154 53.626
1107 189.154 59.226
1108 189.154 75.626
1109 189.154 76.426
1110 189.154 77.226
1111 189.154 78.026
1112 189.279 47.762
1113 189.279 51.318
1114 189.279 79.512
1115 189.279 83.068
1116 189.533 73.843
1117 189.660 55.890
1118 189.787 41.475
1119 189.863 70.916
1120 189.954 52.826
1121 189.954 71.626
1122 189.954 77.226
1123 189.954 78.026
1124 190.041 47.762
1125 190.041 55.382
1126 190.168 56.779
1127 190.422 41.475
1128 190.612 70.050
1129 190.739 74.178
1130 190.739 92.656
1131 190.754 53.626
1132 190.754 54.426
1133 190.754 59.226
1134 190.754 71.626
1135 190.754 72.426
1136 190.754 77.226
1137 190.803 47.762
1138 190.803 51.318
1139 190.803 56.906
1140 190.803 79.512
1141 190.803 83.068
1142 190.854 58.526
1143 190.993 41.221
1144 191.120 60.652
1145 191.184 23.505
1146 191.184 33.157
1147 191.184 63.192
1148 191.184 75.321
1149 191.184 95.133
1150 191.354 78.226
1151 191.438 31.125
1152 191.501 56.334
1153 191.501 61.795
1154 191.501 65.478
1155 191.554 53.626
1156 191.565 40.967
1157 191.692 70.495
1158 192.009 64.081
1159 192.136 40.713
1160 192.327 47.762
1161 192.327 51.318
1162 192.327 83.068
1163 192.454 75.257
1164 192.454 95.958
1165 192.854 78.226
1166 192.898 62.875
1167 192.898 65.224
1168 193.025 57.541
1169 193.154 52.826
1170 193.154 58.426
1171 193.154 59.226
1172 193.154 60.026
1173 193.154 71.626
1174 193.154 76.426
1175 193.154 77.226
1176 193.216 31.633
1177 193.406 69.288
1178 193.454 78.426
1179 193.533 34.490
1180 193.533 67.891
1181 193.724 20.457
1182 193.724 23.124
1183 193.724 92.148
1184 193.851 47.762
1185 193.851 51.318
1186 193.851 79.512
1187 193.851 83.068
1188 193.954 52.826
1189 193.954 53.626
1190 193.954 59.226
1191 193.954 60.026
1192 193.954 71.626
1193 193.954 76.426
1194 193.954 77.226
1195 193.954 78.026
1196 194.017 70.762
1197 194.105 70.114
1198 194.168 37.665
1199 194.232 25.410
1200 194.232 89.100
1201 194.422 34.744
1202 194.486 69.415
1203 194.676 65.732
1204 194.740 68.145
1205 194.754 52.826
1206 194.754 58.426
1207 194.754 59.226
1208 194.754 60.026
1209 195.121 65.351
1210 195.375 47.762
1211 195.375 51.318
1212 195.375 79.512
1213 195.375 83.068
1214 195.554 52.826
1215 195.554 54.426
1216 195.554 58.426
1217 195.554 59.226
1218 195.554 60.026
1219 195.554 72.426
1220 195.554 76.426
1221 195.554 77.226
1222 195.554 78.026
1223 195.819 92.529
1224 195.883 68.780
1225 196.010 65.351
1226 196.264 91.132
1227 196.354 78.026
1228 196.391 25.410
1229 196.391 71.426
1230 196.391 72.446
1231 196.454 54.726
1232 196.454 63.954
1233 196.518 29.093
1234 196.518 66.494
1235 196.554 53.526
1236 196.554 54.126
1237 196.645 68.145
1238 196.772 58.811
1239 196.781 59.626
1240 196.898 70.939
1241 196.899 47.762
1242 196.899 51.318
1243 196.899 79.512
1244 196.899 83.068
1245 196.962 66.050
1246 197.089 76.019
1247 197.280 77.734
1248 197.343 62.811
1249 197.407 65.478
1250 197.661 75.575
1251 197.686 66.939
1252 197.788 62.367
1253 197.851 75.003
1254 198.042 61.795
1255 198.105 74.432
1256 198.169 47.762
1257 198.296 61.224
1258 198.296 64.145
1259 198.296 73.860
1260 198.359 91.386
1261 198.423 51.318
1262 198.423 79.512
1263 198.423 83.068
1264 198.550 24.013
1265 198.550 60.652
1266 198.550 73.162
1267 198.740 45.793
1268 198.804 60.081
1269 198.804 66.748
1270 198.804 72.527
1271 198.931 63.954
1272 199.058 59.509
1273 199.058 71.955
1274 199.185 53.985
1275 199.185 76.845
1276 199.312 58.938
1277 199.312 71.257
1278 199.566 58.366
1279 199.566 70.622
1280 199.629 93.291
1281 199.693 64.462
1282 199.693 66.304
1283 199.756 47.190
1284 199.820 57.795
1285 199.820 69.987
1286 199.883 92.656
1287 199.947 75.448
1288 200.010 44.269
1289 200.074 55.382
1290 200.074 81.925
1291 200.201 47.571
1292 200.201 65.224
1293 200.328 44.777
1294 200.328 84.592
1295 200.455 92.402
1296 200.582 50.937
1297 200.582 53.477
1298 200.645 46.428
1299 200.709 99.070
1300 200.709 101.737
1301 200.836 47.508
1302 200.836 58.049
1303 200.836 61.605
1304 200.836 65.034
1305 200.836 65.796
1306 200.836 69.225
1307 200.836 72.781
1308 200.899 43.507
1309 200.963 44.777
1310 200.963 77.162
1311 201.026 44.079
1312 201.026 92.148
1313 201.090 48.460
1314 201.407 48.968
1315 201.598 91.894
1316 201.661 49.540
1317 202.169 91.640
1318 202.233 59.827
1319 202.296 44.904
1320 202.487 67.447
1321 202.487 78.242
1322 202.487 79.131
1323 202.487 79.893
1324 202.487 80.782
1325 202.614 98.943
1326 202.741 65.415
1327 202.741 69.479
1328 202.804 77.226
1329 202.804 86.179
1330 202.995 64.780
1331 203.058 88.719
1332 203.058 91.640
1333 203.185 82.687
1334 203.249 85.735
1335 203.439 62.367
1336 203.693 91.704
1337 204.011 64.145
1338 204.074 71.511
1339 204.265 34.681
1340 204.265 58.557
1341 204.265 89.037
1342 204.646 78.877
1343 204.836 68.717
1344 204.963 34.998
1345 205.154 22.362
1346 205.916 101.229
1347 206.106 34.490
1348 206.297 35.189
1349 206.932 33.919
1350 207.059 86.370
1351 207.186 32.141
1352 207.249 56.080
1353 207.567 81.417
1354 207.884 71.765
1355 208.329 34.732
1356 208.669 23.632
1357 208.669 98.562
1358 208.773 77.607
1359 208.773 80.401
1360 209.027 79.829
1361 209.027 89.481
1362 209.154 67.447
1363 209.154 69.987
1364 209.281 53.921
1365 209.281 70.622
1366 209.319 22.082
1367 209.319 25.182
1368 209.319 97.012
1369 209.319 100.112
1370 209.472 79.385
1371 209.535 51.254
1372 209.662 60.906
1373 209.789 50.365
1374 210.107 28.077
1375 210.170 61.351
1376 210.170 78.877
1377 210.234 50.873
1378 210.551 64.145
1379 210.869 21.432
1380 210.869 23.632
1381 210.869 25.832
1382 210.869 96.362
1383 210.869 98.562
1384 210.869 100.762
1385 211.059 66.685
1386 211.313 69.225
1387 211.567 71.765
1388 211.631 27.950
1389 211.631 86.243
1390 211.821 74.305
1391 212.075 76.845
1392 212.202 79.385
1393 212.419 22.082
1394 212.419 25.182
1395 212.419 97.012
1396 212.419 100.112
1397 213.069 23.632
1398 213.069 98.562
1399 213.155 90.688
1400 213.282 53.604
1401 213.282 92.212
1402 213.536 48.397
1403 214.425 33.411
1404 214.425 34.427
1405 214.425 53.477
1406 214.425 56.017
1407 214.679 83.957
1408 214.679 85.481
1409 214.679 88.910
1410 214.742 82.115
1411 214.933 91.831
1412 214.933 97.419
1413 214.933 98.943
1414 214.933 100.467
1415 215.060 94.244
1416 215.060 95.006
1417 215.060 95.895
1418 215.187 41.539
1419 215.314 58.557
1420 215.568 61.986
1421 215.568 63.764
1422 215.695 60.462
1423 215.822 32.014
1424 216.076 69.987
1425 216.838 20.965
1426 216.838 69.987
1427 217.727 46.619
1428 217.727 70.876
1429 218.108 44.206
1430 218.235 39.964
1431 218.235 52.283
1432 218.235 56.398
1433 218.235 76.083
1434 218.362 53.350
1435 218.362 93.355
1436 218.743 53.985
1437 218.870 25.283
1438 218.870 55.318
1439 218.997 97.673
1440 219.251 42.936
1441 219.251 48.524
1442 219.441 53.286
1443 219.505 62.748
1444 219.632 61.478
1445 220.013 54.239
1446 220.318 57.617
1447 220.521 34.300
1448 220.521 35.316
1449 220.699 55.191
1450 220.927 57.617
1451 221.029 20.457
1452 221.029 23.124
1453 221.029 99.070
1454 221.029 101.737
1455 221.537 55.509
1456 221.918 47.025
1457 221.918 47.635
1458 221.981 45.730
1459 222.172 39.761
1460 222.324 27.950
1461 222.604 51.938
1462 222.604 53.238
1463 222.710 68.689
1464 222.710 79.103
1465 222.959 57.541
1466 223.204 51.938
1467 223.204 53.238
1468 223.315 32.141
1469 223.391 57.109
1470 223.554 50.988
1471 223.554 51.588
1472 223.554 53.588
1473 223.554 54.188
1474 223.569 74.940
1475 223.696 96.403
1476 223.823 39.888
1477 223.924 48.524
1478 223.950 25.283
1479 224.077 89.672
1480 224.204 52.588
1481 224.585 46.238
1482 224.686 57.668
1483 224.712 90.180
1484 224.854 50.988
1485 224.854 51.588
1486 224.854 53.588
1487 224.854 54.188
1488 225.017 48.270
1489 225.204 51.938
1490 225.204 53.238
1491 225.347 58.811
1492 225.347 83.322
1493 225.347 86.751
1494 225.474 91.602
1495 225.474 94.371
1496 225.804 51.938
1497 225.804 53.238
1498 225.931 47.991
1499 226.058 56.601
1500 226.363 65.034
1501 226.668 56.601
1502 226.744 29.220
1503 226.744 34.935
1504 226.795 39.202
1505 226.922 50.048
1506 227.125 44.079
1507 227.633 22.970
1508 227.633 23.470
1509 227.633 23.970
1510 227.633 24.470
1511 227.633 24.970
1512 227.633 25.470
1513 227.633 25.970
1514 227.760 56.779
1515 228.141 52.537
1516 228.319 51.724
1517 228.395 57.414
1518 228.585 54.747
1519 228.649 63.129
1520 228.750 52.537
1521 228.903 53.655
1522 229.157 82.052
1523 229.284 32.030
1524 229.284 34.030
1525 229.433 28.920
1526 229.538 91.196
1527 229.589 48.143
1528 229.665 36.078
1529 229.710 68.689
1530 229.710 79.103
1531 229.933 28.920
1532 229.944 41.920
1533 230.046 43.952
1534 230.306 61.062
1535 230.306 85.252
1536 230.433 28.920
1537 230.808 59.446
1538 230.933 28.920
1539 231.316 69.479
1540 231.433 28.920
1541 231.443 65.796
1542 231.887 46.047
1543 231.933 28.920
1544 232.433 28.920
1545 232.649 49.032
1546 232.840 61.859
1547 233.221 65.796
1548 234.133 22.970
1549 234.133 23.470
1550 234.133 23.970
1551 234.133 24.470
1552 234.133 24.970
1553 234.133 25.470
1554 234.133 25.970
1555 234.300 55.636
1556 234.364 40.142
1557 234.491 35.443
1558 234.491 52.842
1559 234.872 38.872
1560 234.872 56.906
EOF
